NAME : rnd43_50.tsp
TYPE : TSP
DIMENSION : 50
EDGE_WEIGHT_TYPE : EUC_2D
NODE_COORD_SECTION
1 232 325
2 377 733
3 427 931
4 890 74
5 405 82
6 17 923
7 348 963
8 12 0
9 434 857
10 828 95
11 978 825
12 130 363
13 817 215
14 947 806
15 293 681
16 537 790
17 330 74
18 79 352
19 101 639
20 230 648
21 716 23
22 116 81
23 415 779
24 279 889
25 607 459
26 37 862
27 376 453
28 95 674
29 666 122
30 194 772
31 807 656
32 984 515
33 735 867
34 43 960
35 801 903
36 494 148
37 843 253
38 120 363
39 81 632
40 793 546
41 46 839
42 39 708
43 602 664
44 43 562
45 877 782
46 436 724
47 970 345
48 607 790
49 524 830
50 597 476
